NAME : mr55
COMMENT : 55-city problem (DISC)
TYPE : TSP
DIMENSION : 55
EDGE_WEIGHT_TYPE : EUC_2D
NODE_COORD_SECTION
1 10 27
2 98 68
3 49 85
4 25 21
5 54 78
6 29 84
7 87 54
8 5 38
9 11 21
10 77 19
11 6 33
12 78 8
13 1 20
14 62 92
15 82 62
16 90 4
17 99 28
18 50 73
19 36 94
20 87 40
21 40 72
22 65 82
23 3 4
24 81 83
25 43 48
26 56 29
27 78 60
28 41 7
29 91 17
30 65 54
31 73 59
32 78 23
33 36 75
34 2 77
35 36 36
36 31 60
37 92 98
38 26 30
39 25 63
40 91 32
41 78 93
42 43 47
43 93 87
44 71 19
45 8 29
46 33 29
47 85 58
48 64 50
49 62 76
50 81 7
51 64 93
52 27 29
53 39 55
54 35 53
55 21 50
EOF
